experiment/data/hgs-res/Vrp-Set-E-n76/Vrp-Set-E-n76-hgs/2.hgs1.tour
Route #1: 6 33 73 1 43 41 42 64 22 61 28 62
Route #2: 30 48 47 36 37 20 70 60 71 69 21 74 2 68
Route #3: 67 4 75
Route #4: 46 8 19 54 13 57 15 5 29 45 27 52 34
Route #5: 7 53 11 38 65 66 59 14 35
Route #6: 40 39 9 25 55 31 10 58 72 12 26
Route #7: 17 3 44 32 50 18 24 49 56 23 63 16 51
Cost 687.603
